1691216
1 24 54636
24 20 232009
20 19 59142
19 22 8374
22 11 10309
11 26 13666
26 14 12452
14 5 14271
5 18 5422
18 13 6303
13 25 1644
25 9 14389
9 4 8394
4 28 9482
28 2 6275
2 30 6203
30 6 7944
6 15 10550
15 21 19591
21 16 83825
16 29 55904
29 23 181849
23 10 54017
10 17 52693
17 12 168497
12 8 61690
8 27 98591
27 3 4944
3 7 5029
7 1 423121
